 $CONTRL SCFTYP=RHF RUNTYP=NAEWDY2 NPRINT=3 CITYP=GUGA $END
 $SYSTEM MWORDS=1 $END
 $BASIS GBASIS=STO NGAUSS=3 NDFUNC=1 $END
 $CIDRT IEXCIT=1 NFZC=10 NDOC=1 NVAL=4 $END
 $GUGDIA NSTATE=1 ITERMX=200 MAXDIA=1000 $END
 $DATA
 HCP
 C1
 H           1.0  -1.078134   0.000000  -0.000000
 C           6.0   0.000000   0.200000   0.000000
 P          15.0   1.478509   0.000000   0.100000
 $END
