 $CONTRL SCFTYP=RHF RUNTYP=NAEWDY2 NPRINT=3 CITYP=GUGA $END
 $SYSTEM MWORDS=1 $END
 $BASIS GBASIS=STO NGAUSS=3 NDFUNC=1 $END
 $CIDRT IEXCIT=1 NFZC=0 NDOC=1 NVAL=1 $END
 $GUGDIA NSTATE=1 ITERMX=200 MAXDIA=1000 $END
 $DATA
 HCP
 C1
 H           1.0  -1.078134   0.000000  -0.000000
 H           1.0   0.000000   0.200000   0.000000
 $END
