
 $CONTRL RUNTYP=ENERGY SCFTYP=MCSCF CITYP=GUGA UNITS=BOHR ISPHER=1 $END
 $SYSTEM MWORDS=12 $END
 $BASIS GBASIS=ACCD $END
 $GUESS  GUESS=MOREAD NORB=46 $END
 $MCSCF CISTEP=GUGA FORS=.TRUE. MAXIT=200 $END
 $DRT   GROUP=C2v STSYM=A1 FORS=.TRUE. NMCC=3 NDOC=3 NVAL=6 $END
 $CIDRT GROUP=C2v STSYM=A1 FORS=.TRUE. NFZC=3 NDOC=3 NVAL=6 $END
 $GUGDIA NSTATE=2 ITERMX=200 MAXDIA=50000 $END
 $GUGDM WSTATE(1)=0.5,0.5 $END 
 $GUGDM2 WSTATE(1)=0.5,0.5 $END
 $DATA
LiF  RHF/aug-cc-pVDZ
CNv 2

F    9.0   0.0   0.0  0.0
Li   3.0   0.0   0.0  3.0
 $END
 $VEC   
 1  1 1.00086220E+00 8.38397430E-04-4.35187509E-03-0.00000000E+00-0.00000000E+00
 1  2 2.08145981E-04-0.00000000E+00-0.00000000E+00-1.60986204E-04 7.52032148E-05
 1  3 7.52025003E-05-1.50405715E-04-0.00000000E+00-0.00000000E+00-0.00000000E+00
 1  4 1.78514799E-03-0.00000000E+00-0.00000000E+00 2.26353563E-04-2.00076085E-05
 1  5-2.00078733E-05 4.00154818E-05-0.00000000E+00-0.00000000E+00-0.00000000E+00
 1  6-5.37521934E-05-3.95767795E-05-5.36691635E-04-0.00000000E+00-0.00000000E+00
 1  7-3.67241570E-04-0.00000000E+00-0.00000000E+00 4.53312582E-04-4.36783046E-04
 1  8-4.36782792E-04 8.73565838E-04-0.00000000E+00-0.00000000E+00-0.00000000E+00
 1  9 1.16735884E-04-0.00000000E+00-0.00000000E+00-1.23328063E-04 2.90693102E-04
 1 10 2.90693012E-04-5.81386114E-04-0.00000000E+00-0.00000000E+00-0.00000000E+00
 2  1-6.66709858E-04 1.32838771E-02 1.43257613E-02-0.00000000E+00-0.00000000E+00
 2  2 7.31804413E-03-0.00000000E+00-0.00000000E+00 5.38011769E-03-4.92772840E-04
 2  3-4.92771879E-04 9.85544719E-04-0.00000000E+00-0.00000000E+00-0.00000000E+00
 2  4 9.18543201E-03-0.00000000E+00-0.00000000E+00 1.88915425E-03-5.23500930E-04
 2  5-5.23498453E-04 1.04699938E-03-0.00000000E+00-0.00000000E+00-0.00000000E+00
 2  6 9.94990489E-01-6.65224330E-03-4.75100878E-03-0.00000000E+00-0.00000000E+00
 2  7 7.96377530E-03-0.00000000E+00-0.00000000E+00-1.45347629E-03 1.10413474E-03
 2  8 1.10412997E-03-2.20826471E-03-0.00000000E+00-0.00000000E+00-0.00000000E+00
 2  9 1.44065980E-03-0.00000000E+00-0.00000000E+00 3.83114861E-04 1.63518482E-05
 2 10 1.63553460E-05-3.27071941E-05-0.00000000E+00-0.00000000E+00-0.00000000E+00
 3  1-2.95574214E-03 5.03007872E-01 5.63498624E-01 0.00000000E+00 0.00000000E+00
 3  2 1.96061503E-02 0.00000000E+00 0.00000000E+00 2.61457931E-02-4.09694437E-04
 3  3-4.09700905E-04 8.19395342E-04 0.00000000E+00 0.00000000E+00 0.00000000E+00
 3  4-2.57042661E-02 0.00000000E+00 0.00000000E+00-1.86286424E-02-3.41611292E-03
 3  5-3.41610938E-03 6.83222230E-03 0.00000000E+00 0.00000000E+00 0.00000000E+00
 3  6-5.32139713E-02 4.44543753E-02-2.20683555E-03 0.00000000E+00 0.00000000E+00
 3  7-3.57564945E-02 0.00000000E+00 0.00000000E+00 4.97579875E-03-1.13080713E-03
 3  8-1.13079449E-03 2.26160162E-03 0.00000000E+00 0.00000000E+00 0.00000000E+00
 3  9-7.76179516E-04 0.00000000E+00 0.00000000E+00-7.41520408E-04-2.91804262E-03
 3 10-2.91804072E-03 5.83608334E-03 0.00000000E+00 0.00000000E+00 0.00000000E+00
 4  1-0.00000000E+00-0.00000000E+00-0.00000000E+00 6.65664626E-01-0.00000000E+00
 4  2-0.00000000E+00 4.38602602E-01-0.00000000E+00-0.00000000E+00-0.00000000E+00
 4  3-0.00000000E+00-0.00000000E+00-0.00000000E+00 1.49126440E-03-0.00000000E+00
 4  4-0.00000000E+00 5.73221270E-02-0.00000000E+00-0.00000000E+00-0.00000000E+00
 4  5-0.00000000E+00-0.00000000E+00-0.00000000E+00 1.68732297E-02-0.00000000E+00
 4  6-0.00000000E+00-0.00000000E+00-0.00000000E+00 5.61397929E-02-0.00000000E+00
 4  7-0.00000000E+00-1.79900823E-02-0.00000000E+00-0.00000000E+00-0.00000000E+00
 4  8-0.00000000E+00-0.00000000E+00-0.00000000E+00-1.91593938E-02-0.00000000E+00
 4  9-0.00000000E+00 5.07063463E-03-0.00000000E+00-0.00000000E+00-0.00000000E+00
 4 10-0.00000000E+00-0.00000000E+00-0.00000000E+00-2.03044300E-03-0.00000000E+00
 5  1-0.00000000E+00-0.00000000E+00-0.00000000E+00-0.00000000E+00 6.65664383E-01
 5  2-0.00000000E+00-0.00000000E+00 4.38601879E-01-0.00000000E+00-0.00000000E+00
 5  3-0.00000000E+00-0.00000000E+00-0.00000000E+00-0.00000000E+00 1.49101124E-03
 5  4-0.00000000E+00-0.00000000E+00 5.73222576E-02-0.00000000E+00-0.00000000E+00
 5  5-0.00000000E+00-0.00000000E+00-0.00000000E+00-0.00000000E+00 1.68736609E-02
 5  6-0.00000000E+00-0.00000000E+00-0.00000000E+00-0.00000000E+00 5.61400370E-02
 5  7-0.00000000E+00-0.00000000E+00-1.79896990E-02-0.00000000E+00-0.00000000E+00
 5  8-0.00000000E+00-0.00000000E+00-0.00000000E+00-0.00000000E+00-1.91618342E-02
 5  9-0.00000000E+00-0.00000000E+00 5.07224248E-03-0.00000000E+00-0.00000000E+00
 5 10-0.00000000E+00-0.00000000E+00-0.00000000E+00-0.00000000E+00-2.02948306E-03
 6  1-7.62879393E-03-4.13641551E-02-1.32432493E-02 0.00000000E+00 0.00000000E+00
 6  2 6.41896649E-01 0.00000000E+00 0.00000000E+00 4.57501822E-01-6.31729709E-04
 6  3-6.31726193E-04 1.26345590E-03 0.00000000E+00 0.00000000E+00 0.00000000E+00
 6  4-2.39112538E-01 0.00000000E+00 0.00000000E+00 1.27226227E-02-1.31671323E-02
 6  5-1.31670854E-02 2.63342176E-02 0.00000000E+00 0.00000000E+00 0.00000000E+00
 6  6-2.99622090E-02 2.03230179E-01-1.65926191E-02 0.00000000E+00 0.00000000E+00
 6  7-2.00035973E-01 0.00000000E+00 0.00000000E+00 3.13616542E-02-1.20739868E-02
 6  8-1.20739503E-02 2.41479371E-02 0.00000000E+00 0.00000000E+00 0.00000000E+00
 6  9 1.02154706E-03 0.00000000E+00 0.00000000E+00-7.72882791E-03-1.28443600E-02
 6 10-1.28443830E-02 2.56887430E-02 0.00000000E+00 0.00000000E+00 0.00000000E+00
 7  1-5.54522439E-04-3.66642990E-02-8.98599138E-02-0.00000000E+00-0.00000000E+00
 7  2-2.59909206E-02-0.00000000E+00-0.00000000E+00-3.75222969E-02-5.88473765E-04
 7  3-5.88465204E-04 1.17693897E-03-0.00000000E+00-0.00000000E+00-0.00000000E+00
 7  4-1.22108874E-02-0.00000000E+00-0.00000000E+00-1.78045543E-02 4.34545459E-03
 7  5 4.34551583E-03-8.69097041E-03-0.00000000E+00-0.00000000E+00-0.00000000E+00
 7  6-4.65743254E-03 4.35753396E-01 5.66963360E-01-0.00000000E+00-0.00000000E+00
 7  7 2.65804627E-01-0.00000000E+00-0.00000000E+00 4.90046344E-02 5.56046455E-03
 7  8 5.56055474E-03-1.11210193E-02-0.00000000E+00-0.00000000E+00-0.00000000E+00
 7  9 3.16348314E-02-0.00000000E+00-0.00000000E+00 1.70060546E-03 9.58945182E-03
 7 10 9.58950028E-03-1.91789521E-02-0.00000000E+00-0.00000000E+00-0.00000000E+00
 8  1-0.00000000E+00-0.00000000E+00-0.00000000E+00-0.00000000E+00 8.52992183E-01
 8  2-0.00000000E+00-0.00000000E+00-7.41413646E-01-0.00000000E+00-0.00000000E+00
 8  3-0.00000000E+00-0.00000000E+00-0.00000000E+00-0.00000000E+00-2.18261559E-02
 8  4-0.00000000E+00-0.00000000E+00-2.08016654E-01-0.00000000E+00-0.00000000E+00
 8  5-0.00000000E+00-0.00000000E+00-0.00000000E+00-0.00000000E+00-6.25760049E-02
 8  6-0.00000000E+00-0.00000000E+00-0.00000000E+00-0.00000000E+00-1.74090639E-01
 8  7-0.00000000E+00-0.00000000E+00 6.71093193E-02-0.00000000E+00-0.00000000E+00
 8  8-0.00000000E+00-0.00000000E+00-0.00000000E+00-0.00000000E+00 8.49587016E-02
 8  9-0.00000000E+00-0.00000000E+00-1.83574866E-02-0.00000000E+00-0.00000000E+00
 8 10-0.00000000E+00-0.00000000E+00-0.00000000E+00-0.00000000E+00-1.96723612E-02
 9  1-0.00000000E+00-0.00000000E+00-0.00000000E+00 8.52993898E-01-0.00000000E+00
 9  2-0.00000000E+00-7.41419990E-01-0.00000000E+00-0.00000000E+00-0.00000000E+00
 9  3-0.00000000E+00-0.00000000E+00-0.00000000E+00-2.18258182E-02-0.00000000E+00
 9  4-0.00000000E+00-2.08008391E-01-0.00000000E+00-0.00000000E+00-0.00000000E+00
 9  5-0.00000000E+00-0.00000000E+00-0.00000000E+00-6.25671287E-02-0.00000000E+00
 9  6-0.00000000E+00-0.00000000E+00-0.00000000E+00-1.74096670E-01-0.00000000E+00
 9  7-0.00000000E+00 6.71083086E-02-0.00000000E+00-0.00000000E+00-0.00000000E+00
 9  8-0.00000000E+00-0.00000000E+00-0.00000000E+00 8.49507382E-02-0.00000000E+00
 9  9-0.00000000E+00-1.83480305E-02-0.00000000E+00-0.00000000E+00-0.00000000E+00
 9 10-0.00000000E+00-0.00000000E+00-0.00000000E+00-1.96639954E-02-0.00000000E+00
10  1-6.21218698E-03-8.86123724E-03 3.00062480E-02-0.00000000E+00-0.00000000E+00
10  2 8.78936207E-01-0.00000000E+00-0.00000000E+00-7.27527004E-01 6.78653333E-03
10  3 6.78632431E-03-1.35728576E-02-0.00000000E+00-0.00000000E+00-0.00000000E+00
10  4 6.77463110E-01-0.00000000E+00-0.00000000E+00-1.39081997E-01 3.78105089E-02
10  5 3.78102220E-02-7.56207309E-02-0.00000000E+00-0.00000000E+00-0.00000000E+00
10  6-4.17279793E-02-5.01279923E-01 8.49855057E-02-0.00000000E+00-0.00000000E+00
10  7 5.96012398E-01-0.00000000E+00-0.00000000E+00-6.45316192E-02 1.16180762E-02
10  8 1.16181933E-02-2.32362695E-02-0.00000000E+00-0.00000000E+00-0.00000000E+00
10  9-2.99108756E-03-0.00000000E+00-0.00000000E+00 1.95650297E-02 6.38844789E-02
10 10 6.38843553E-02-1.27768834E-01-0.00000000E+00-0.00000000E+00-0.00000000E+00
11  1 0.00000000E+00 0.00000000E+00 0.00000000E+00 8.34609615E-02 0.00000000E+00
11  2 0.00000000E+00-1.25114117E-01 0.00000000E+00 0.00000000E+00 0.00000000E+00
11  3 0.00000000E+00 0.00000000E+00 0.00000000E+00 6.92231408E-01 0.00000000E+00
11  4 0.00000000E+00-4.84647666E-03 0.00000000E+00 0.00000000E+00 0.00000000E+00
11  5 0.00000000E+00 0.00000000E+00 0.00000000E+00 4.35152219E-01 0.00000000E+00
11  6 0.00000000E+00 0.00000000E+00 0.00000000E+00 2.61554500E-02 0.00000000E+00
11  7 0.00000000E+00-1.24229823E-02 0.00000000E+00 0.00000000E+00 0.00000000E+00
11  8 0.00000000E+00 0.00000000E+00 0.00000000E+00-2.15070241E-02 0.00000000E+00
11  9 0.00000000E+00 3.23204524E-03 0.00000000E+00 0.00000000E+00 0.00000000E+00
11 10 0.00000000E+00 0.00000000E+00 0.00000000E+00 1.38577593E-02 0.00000000E+00
12  1 0.00000000E+00 0.00000000E+00 0.00000000E+00 0.00000000E+00 8.34691398E-02
12  2 0.00000000E+00 0.00000000E+00-1.25123532E-01 0.00000000E+00 0.00000000E+00
12  3 0.00000000E+00 0.00000000E+00 0.00000000E+00 0.00000000E+00 6.92229807E-01
12  4 0.00000000E+00 0.00000000E+00-4.81960884E-03 0.00000000E+00 0.00000000E+00
12  5 0.00000000E+00 0.00000000E+00 0.00000000E+00 0.00000000E+00 4.35156778E-01
12  6 0.00000000E+00 0.00000000E+00 0.00000000E+00 0.00000000E+00 2.61394909E-02
12  7 0.00000000E+00 0.00000000E+00-1.24235084E-02 0.00000000E+00 0.00000000E+00
12  8 0.00000000E+00 0.00000000E+00 0.00000000E+00 0.00000000E+00-2.14891577E-02
12  9 0.00000000E+00 0.00000000E+00 3.24450095E-03 0.00000000E+00 0.00000000E+00
12 10 0.00000000E+00 0.00000000E+00 0.00000000E+00 0.00000000E+00 1.38625592E-02
13  1-0.00000000E+00-0.00000000E+00-0.00000000E+00 8.41715654E-03-0.00000000E+00
13  2-0.00000000E+00-7.64206050E-03-0.00000000E+00-0.00000000E+00-0.00000000E+00
13  3-0.00000000E+00-0.00000000E+00-0.00000000E+00 3.45498376E-04-0.00000000E+00
13  4-0.00000000E+00-1.68668580E-02-0.00000000E+00-0.00000000E+00-0.00000000E+00
13  5-0.00000000E+00-0.00000000E+00-0.00000000E+00-1.79580284E-03-0.00000000E+00
13  6-0.00000000E+00-0.00000000E+00-0.00000000E+00 1.03367752E-02-0.00000000E+00
13  7-0.00000000E+00-1.75718221E-01-0.00000000E+00-0.00000000E+00-0.00000000E+00
13  8-0.00000000E+00-0.00000000E+00-0.00000000E+00-1.24423567E-02-0.00000000E+00
13  9-0.00000000E+00 1.08682615E+00-0.00000000E+00-0.00000000E+00-0.00000000E+00
13 10-0.00000000E+00-0.00000000E+00-0.00000000E+00 4.23513087E-02-0.00000000E+00
14  1-0.00000000E+00-0.00000000E+00-0.00000000E+00-0.00000000E+00 8.41853485E-03
14  2-0.00000000E+00-0.00000000E+00-7.64016529E-03-0.00000000E+00-0.00000000E+00
14  3-0.00000000E+00-0.00000000E+00-0.00000000E+00-0.00000000E+00 3.42670215E-04
14  4-0.00000000E+00-0.00000000E+00-1.68518594E-02-0.00000000E+00-0.00000000E+00
14  5-0.00000000E+00-0.00000000E+00-0.00000000E+00-0.00000000E+00-1.80511298E-03
14  6-0.00000000E+00-0.00000000E+00-0.00000000E+00-0.00000000E+00 1.03111655E-02
14  7-0.00000000E+00-0.00000000E+00-1.75729590E-01-0.00000000E+00-0.00000000E+00
14  8-0.00000000E+00-0.00000000E+00-0.00000000E+00-0.00000000E+00-1.24345558E-02
14  9-0.00000000E+00-0.00000000E+00 1.08683198E+00-0.00000000E+00-0.00000000E+00
14 10-0.00000000E+00-0.00000000E+00-0.00000000E+00-0.00000000E+00 4.23513001E-02
15  1-7.78687237E-04 7.28523073E-03 2.93206855E-02-0.00000000E+00-0.00000000E+00
15  2 3.19660545E-03-0.00000000E+00-0.00000000E+00 4.40707555E-03 1.00540660E-04
15  3 1.00539908E-04-2.01080568E-04-0.00000000E+00-0.00000000E+00-0.00000000E+00
15  4 5.88943241E-03-0.00000000E+00-0.00000000E+00 2.17318523E-03-8.12666393E-04
15  5-8.12674430E-04 1.62534082E-03-0.00000000E+00-0.00000000E+00-0.00000000E+00
15  6 3.06643807E-03-2.39539703E-02-1.19613164E-01-0.00000000E+00-0.00000000E+00
15  7 4.13383677E-02-0.00000000E+00-0.00000000E+00-2.13555786E-01 1.31843325E-02
15  8 1.31843339E-02-2.63686664E-02-0.00000000E+00-0.00000000E+00-0.00000000E+00
15  9 1.14530075E-01-0.00000000E+00-0.00000000E+00 1.09635405E+00-2.67279438E-02
15 10-2.67279478E-02 5.34558916E-02-0.00000000E+00-0.00000000E+00-0.00000000E+00
16  1 2.72188875E-03 3.90007304E-03-2.99897403E-02 0.00000000E+00 0.00000000E+00
16  2-1.26921962E-02 0.00000000E+00 0.00000000E+00 3.70505721E-03 4.27354829E-04
16  3 4.27356732E-04-8.54711561E-04 0.00000000E+00 0.00000000E+00 0.00000000E+00
16  4 1.80839640E-01 0.00000000E+00 0.00000000E+00 1.22679584E-01-3.38960005E-03
16  5-3.38958636E-03 6.77918642E-03 0.00000000E+00 0.00000000E+00 0.00000000E+00
16  6 5.26715416E-02 5.53418295E-02-1.37355255E+00 0.00000000E+00 0.00000000E+00
16  7-4.70053150E-02 0.00000000E+00 0.00000000E+00-2.96155804E-02-9.77049582E-03
16  8-9.77047576E-03 1.95409716E-02 0.00000000E+00 0.00000000E+00 0.00000000E+00
16  9 1.67296787E+00 0.00000000E+00 0.00000000E+00-4.87945898E-02 3.58274473E-02
16 10 3.58274443E-02-7.16548916E-02 0.00000000E+00 0.00000000E+00 0.00000000E+00
17  1 9.09872074E-03 5.71664481E-02 2.90641332E-02-0.00000000E+00-0.00000000E+00
17  2 5.75192232E-03-0.00000000E+00-0.00000000E+00 2.18938274E-02-4.14676816E-04
17  3-4.14679473E-04 8.29356289E-04-0.00000000E+00-0.00000000E+00-0.00000000E+00
17  4 5.84050796E-01-0.00000000E+00-0.00000000E+00-1.29722596E-01-1.05278332E-03
17  5-1.05281546E-03 2.10559878E-03-0.00000000E+00-0.00000000E+00-0.00000000E+00
17  6 1.88159432E-02-3.44077646E-02-6.99225519E-01-0.00000000E+00-0.00000000E+00
17  7 8.64425101E-02-0.00000000E+00-0.00000000E+00 1.40594294E+00 5.61548064E-03
17  8 5.61545021E-03-1.12309308E-02-0.00000000E+00-0.00000000E+00-0.00000000E+00
17  9 2.78433075E-01-0.00000000E+00-0.00000000E+00-5.79251399E-01 1.62520724E-02
17 10 1.62521119E-02-3.25041843E-02-0.00000000E+00-0.00000000E+00-0.00000000E+00
18  1-0.00000000E+00-0.00000000E+00-0.00000000E+00 3.18182569E-02-0.00000000E+00
18  2-0.00000000E+00 8.35996184E-03-0.00000000E+00-0.00000000E+00-0.00000000E+00
18  3-0.00000000E+00-0.00000000E+00-0.00000000E+00-1.64777415E-03-0.00000000E+00
18  4-0.00000000E+00-3.76303312E-01-0.00000000E+00-0.00000000E+00-0.00000000E+00
18  5-0.00000000E+00-0.00000000E+00-0.00000000E+00-1.47012134E-02-0.00000000E+00
18  6-0.00000000E+00-0.00000000E+00-0.00000000E+00-9.80049028E-02-0.00000000E+00
18  7-0.00000000E+00 1.41748662E+00-0.00000000E+00-0.00000000E+00-0.00000000E+00
18  8-0.00000000E+00-0.00000000E+00-0.00000000E+00-2.83324501E-02-0.00000000E+00
18  9-0.00000000E+00-5.88652661E-01-0.00000000E+00-0.00000000E+00-0.00000000E+00
18 10-0.00000000E+00-0.00000000E+00-0.00000000E+00 7.08533065E-02-0.00000000E+00
19  1-0.00000000E+00-0.00000000E+00-0.00000000E+00-0.00000000E+00 3.18174639E-02
19  2-0.00000000E+00-0.00000000E+00 8.36067104E-03-0.00000000E+00-0.00000000E+00
19  3-0.00000000E+00-0.00000000E+00-0.00000000E+00-0.00000000E+00-1.64881086E-03
19  4-0.00000000E+00-0.00000000E+00-3.76297167E-01-0.00000000E+00-0.00000000E+00
19  5-0.00000000E+00-0.00000000E+00-0.00000000E+00-0.00000000E+00-1.47052322E-02
19  6-0.00000000E+00-0.00000000E+00-0.00000000E+00-0.00000000E+00-9.80131745E-02
19  7-0.00000000E+00-0.00000000E+00 1.41748649E+00-0.00000000E+00-0.00000000E+00
19  8-0.00000000E+00-0.00000000E+00-0.00000000E+00-0.00000000E+00-2.83281790E-02
19  9-0.00000000E+00-0.00000000E+00-5.88636962E-01-0.00000000E+00-0.00000000E+00
19 10-0.00000000E+00-0.00000000E+00-0.00000000E+00-0.00000000E+00 7.08517894E-02
20  1 2.24832134E-03-1.19123144E-02-5.62937586E-02 0.00000000E+00 0.00000000E+00
20  2 7.83981919E-03 0.00000000E+00 0.00000000E+00-4.48118624E-02-2.62479436E-03
20  3-2.62479692E-03 5.24959128E-03 0.00000000E+00 0.00000000E+00 0.00000000E+00
20  4-4.07950473E-01 0.00000000E+00 0.00000000E+00-4.17670239E-01 1.49470919E-02
20  5 1.49470874E-02-2.98941793E-02 0.00000000E+00 0.00000000E+00 0.00000000E+00
20  6-2.45170803E-01-1.01328327E+00 2.06769762E+00 0.00000000E+00 0.00000000E+00
20  7-1.01587047E+00 0.00000000E+00 0.00000000E+00 7.69379807E-01-1.78152183E-01
20  8-1.78151006E-01 3.56303189E-01 0.00000000E+00 0.00000000E+00 0.00000000E+00
20  9-7.55057678E-01 0.00000000E+00 0.00000000E+00-2.09203782E-01 3.41246543E-01
20 10 3.41244055E-01-6.82490598E-01 0.00000000E+00 0.00000000E+00 0.00000000E+00
21  1-1.72782372E-09-3.28389654E-08-7.09960526E-08 0.00000000E+00 0.00000000E+00
21  2 1.21580555E-08 0.00000000E+00 0.00000000E+00-1.18396698E-08-1.90185495E-03
21  3 1.90185023E-03 4.71989125E-09 0.00000000E+00 0.00000000E+00 0.00000000E+00
21  4-4.60023943E-07 0.00000000E+00 0.00000000E+00-3.67196240E-07-7.80882458E-03
21  5 7.80885887E-03-3.42925936E-08 0.00000000E+00 0.00000000E+00 0.00000000E+00
21  6-2.24200383E-07-9.50959217E-07 1.92744292E-06 0.00000000E+00 0.00000000E+00
21  7-9.83197912E-07 0.00000000E+00 0.00000000E+00 6.26943316E-07 6.37108269E-01
21  8-6.37108421E-01 1.51590679E-07 0.00000000E+00 0.00000000E+00 0.00000000E+00
21  9-7.11817862E-07 0.00000000E+00 0.00000000E+00-1.68318668E-07-1.41188231E+00
21 10 1.41188256E+00-2.49582971E-07 0.00000000E+00 0.00000000E+00 0.00000000E+00
22  1-0.00000000E+00-0.00000000E+00-0.00000000E+00-0.00000000E+00-0.00000000E+00
22  2-0.00000000E+00-0.00000000E+00-0.00000000E+00-0.00000000E+00-0.00000000E+00
22  3-0.00000000E+00-0.00000000E+00 2.19607021E-03-0.00000000E+00-0.00000000E+00
22  4-0.00000000E+00-0.00000000E+00-0.00000000E+00-0.00000000E+00-0.00000000E+00
22  5-0.00000000E+00-0.00000000E+00 9.01687374E-03-0.00000000E+00-0.00000000E+00
22  6-0.00000000E+00-0.00000000E+00-0.00000000E+00-0.00000000E+00-0.00000000E+00
22  7-0.00000000E+00-0.00000000E+00-0.00000000E+00-0.00000000E+00-0.00000000E+00
22  8-0.00000000E+00-0.00000000E+00-7.35669349E-01-0.00000000E+00-0.00000000E+00
22  9-0.00000000E+00-0.00000000E+00-0.00000000E+00-0.00000000E+00-0.00000000E+00
22 10-0.00000000E+00-0.00000000E+00 1.63030141E+00-0.00000000E+00-0.00000000E+00
23  1-0.00000000E+00-0.00000000E+00-0.00000000E+00 9.24726068E-03-0.00000000E+00
23  2-0.00000000E+00-5.94063802E-02-0.00000000E+00-0.00000000E+00-0.00000000E+00
23  3-0.00000000E+00-0.00000000E+00-0.00000000E+00-8.23714553E-03-0.00000000E+00
23  4-0.00000000E+00 6.65349136E-01-0.00000000E+00-0.00000000E+00-0.00000000E+00
23  5-0.00000000E+00-0.00000000E+00-0.00000000E+00-7.75993764E-02-0.00000000E+00
23  6-0.00000000E+00-0.00000000E+00-0.00000000E+00 4.57452101E-01-0.00000000E+00
23  7-0.00000000E+00-8.06702182E-01-0.00000000E+00-0.00000000E+00-0.00000000E+00
23  8-0.00000000E+00-0.00000000E+00-0.00000000E+00-6.00385207E-01-0.00000000E+00
23  9-0.00000000E+00 2.30218783E-01-0.00000000E+00-0.00000000E+00-0.00000000E+00
23 10-0.00000000E+00-0.00000000E+00-0.00000000E+00 1.67586743E+00-0.00000000E+00
24  1-0.00000000E+00-0.00000000E+00-0.00000000E+00-0.00000000E+00 9.24624398E-03
24  2-0.00000000E+00-0.00000000E+00-5.94059363E-02-0.00000000E+00-0.00000000E+00
24  3-0.00000000E+00-0.00000000E+00-0.00000000E+00-0.00000000E+00-8.23797593E-03
24  4-0.00000000E+00-0.00000000E+00 6.65352376E-01-0.00000000E+00-0.00000000E+00
24  5-0.00000000E+00-0.00000000E+00-0.00000000E+00-0.00000000E+00-7.76033002E-02
24  6-0.00000000E+00-0.00000000E+00-0.00000000E+00-0.00000000E+00 4.57450937E-01
24  7-0.00000000E+00-0.00000000E+00-8.06699753E-01-0.00000000E+00-0.00000000E+00
24  8-0.00000000E+00-0.00000000E+00-0.00000000E+00-0.00000000E+00-6.00388259E-01
24  9-0.00000000E+00-0.00000000E+00 2.30225254E-01-0.00000000E+00-0.00000000E+00
24 10-0.00000000E+00-0.00000000E+00-0.00000000E+00-0.00000000E+00 1.67587178E+00
25  1-2.02110375E-02-4.11186438E-02 2.22307558E-01 0.00000000E+00 0.00000000E+00
25  2-5.33689944E-02 0.00000000E+00 0.00000000E+00 2.51397064E-02-2.78754403E-03
25  3-2.78753860E-03 5.57508264E-03 0.00000000E+00 0.00000000E+00 0.00000000E+00
25  4-2.23240223E+00 0.00000000E+00 0.00000000E+00 5.28958351E-01 1.00364946E-02
25  5 1.00365328E-02-2.00730275E-02 0.00000000E+00 0.00000000E+00 0.00000000E+00
25  6-1.71763673E-01-5.22783795E-01 2.11293005E+00 0.00000000E+00 0.00000000E+00
25  7-9.19532668E-01 0.00000000E+00 0.00000000E+00-6.54588877E-01 4.43000416E-01
25  8 4.43000699E-01-8.86001115E-01 0.00000000E+00 0.00000000E+00 0.00000000E+00
25  9-5.09606622E-01 0.00000000E+00 0.00000000E+00 1.45596791E-01-1.18360988E+00
25 10-1.18361038E+00 2.36722026E+00 0.00000000E+00 0.00000000E+00 0.00000000E+00
26  1 1.24470782E-02-1.08318158E-01-5.17812406E-01-0.00000000E+00-0.00000000E+00
26  2-2.34430553E-02-0.00000000E+00-0.00000000E+00 1.27550959E-01-1.75360934E-04
26  3-1.75356507E-04 3.50717440E-04-0.00000000E+00-0.00000000E+00-0.00000000E+00
26  4 1.33687724E+00-0.00000000E+00-0.00000000E+00-4.60550367E-01 7.20792204E-04
26  5 7.20836274E-04-1.44162848E-03-0.00000000E+00-0.00000000E+00-0.00000000E+00
26  6 2.14727153E-01 7.10930270E-01-1.30316990E+00-0.00000000E+00-0.00000000E+00
26  7-3.03422288E-01-0.00000000E+00-0.00000000E+00 7.52017564E-01 4.76624027E-01
26  8 4.76624052E-01-9.53248079E-01-0.00000000E+00-0.00000000E+00-0.00000000E+00
26  9 2.98359174E-01-0.00000000E+00-0.00000000E+00-1.78936416E-01-3.61399265E-01
26 10-3.61399446E-01 7.22798711E-01-0.00000000E+00-0.00000000E+00-0.00000000E+00
27  1 0.00000000E+00 0.00000000E+00 0.00000000E+00 0.00000000E+00-6.33340908E-02
27  2 0.00000000E+00 0.00000000E+00-7.91152530E-02 0.00000000E+00 0.00000000E+00
27  3 0.00000000E+00 0.00000000E+00 0.00000000E+00 0.00000000E+00 2.65757865E-02
27  4 0.00000000E+00 0.00000000E+00 1.76752536E+00 0.00000000E+00 0.00000000E+00
27  5 0.00000000E+00 0.00000000E+00 0.00000000E+00 0.00000000E+00 1.13126340E-01
27  6 0.00000000E+00 0.00000000E+00 0.00000000E+00 0.00000000E+00-1.71827500E+00
27  7 0.00000000E+00 0.00000000E+00 1.06208306E-01 0.00000000E+00 0.00000000E+00
27  8 0.00000000E+00 0.00000000E+00 0.00000000E+00 0.00000000E+00-1.34652867E+00
27  9 0.00000000E+00 0.00000000E+00-5.44602341E-02 0.00000000E+00 0.00000000E+00
27 10 0.00000000E+00 0.00000000E+00 0.00000000E+00 0.00000000E+00 2.39012278E+00
28  1 0.00000000E+00 0.00000000E+00 0.00000000E+00-6.33372542E-02 0.00000000E+00
28  2 0.00000000E+00-7.91123608E-02 0.00000000E+00 0.00000000E+00 0.00000000E+00
28  3 0.00000000E+00 0.00000000E+00 0.00000000E+00 2.65761804E-02 0.00000000E+00
28  4 0.00000000E+00 1.76749230E+00 0.00000000E+00 0.00000000E+00 0.00000000E+00
28  5 0.00000000E+00 0.00000000E+00 0.00000000E+00 1.13122936E-01 0.00000000E+00
28  6 0.00000000E+00 0.00000000E+00 0.00000000E+00-1.71825612E+00 0.00000000E+00
28  7 0.00000000E+00 1.06213512E-01 0.00000000E+00 0.00000000E+00 0.00000000E+00
28  8 0.00000000E+00 0.00000000E+00 0.00000000E+00-1.34656921E+00 0.00000000E+00
28  9 0.00000000E+00-5.44500575E-02 0.00000000E+00 0.00000000E+00 0.00000000E+00
28 10 0.00000000E+00 0.00000000E+00 0.00000000E+00 2.39014175E+00 0.00000000E+00
29  1-0.00000000E+00-0.00000000E+00-0.00000000E+00-0.00000000E+00 1.06045404E-01
29  2-0.00000000E+00-0.00000000E+00-1.68909022E-01-0.00000000E+00-0.00000000E+00
29  3-0.00000000E+00-0.00000000E+00-0.00000000E+00-0.00000000E+00 1.94268711E-02
29  4-0.00000000E+00-0.00000000E+00 1.72038718E+00-0.00000000E+00-0.00000000E+00
29  5-0.00000000E+00-0.00000000E+00-0.00000000E+00-0.00000000E+00 2.49693575E-01
29  6-0.00000000E+00-0.00000000E+00-0.00000000E+00-0.00000000E+00-8.94916166E-01
29  7-0.00000000E+00-0.00000000E+00-2.36165127E-01-0.00000000E+00-0.00000000E+00
29  8-0.00000000E+00-0.00000000E+00-0.00000000E+00-0.00000000E+00 1.82537402E+00
29  9-0.00000000E+00-0.00000000E+00 4.48586298E-02-0.00000000E+00-0.00000000E+00
29 10-0.00000000E+00-0.00000000E+00-0.00000000E+00-0.00000000E+00-7.09630013E-01
30  1-0.00000000E+00-0.00000000E+00-0.00000000E+00 1.06046344E-01-0.00000000E+00
30  2-0.00000000E+00-1.68914979E-01-0.00000000E+00-0.00000000E+00-0.00000000E+00
30  3-0.00000000E+00-0.00000000E+00-0.00000000E+00 1.94296800E-02-0.00000000E+00
30  4-0.00000000E+00 1.72042703E+00-0.00000000E+00-0.00000000E+00-0.00000000E+00
30  5-0.00000000E+00-0.00000000E+00-0.00000000E+00 2.49709342E-01-0.00000000E+00
30  6-0.00000000E+00-0.00000000E+00-0.00000000E+00-8.94953676E-01-0.00000000E+00
30  7-0.00000000E+00-2.36160338E-01-0.00000000E+00-0.00000000E+00-0.00000000E+00
30  8-0.00000000E+00-0.00000000E+00-0.00000000E+00 1.82534582E+00-0.00000000E+00
30  9-0.00000000E+00 4.48604751E-02-0.00000000E+00-0.00000000E+00-0.00000000E+00
30 10-0.00000000E+00-0.00000000E+00-0.00000000E+00-7.09577424E-01-0.00000000E+00
31  1-7.07409707E-09 1.18359750E-08 2.05090959E-07 0.00000000E+00 0.00000000E+00
31  2 9.98281199E-09 0.00000000E+00 0.00000000E+00 1.01759666E-08 6.65092958E-03
31  3-6.65093109E-03 1.50606138E-09 0.00000000E+00 0.00000000E+00 0.00000000E+00
31  4-3.24756101E-07 0.00000000E+00 0.00000000E+00 2.84357092E-08 4.14540232E-03
31  5-4.14540989E-03 7.56346860E-09 0.00000000E+00 0.00000000E+00 0.00000000E+00
31  6-8.72931619E-09-2.37793881E-08 2.28526889E-07 0.00000000E+00 0.00000000E+00
31  7-9.94587205E-09 0.00000000E+00 0.00000000E+00-9.47712087E-08 2.08235727E+00
31  8-2.08235682E+00-4.43169379E-07 0.00000000E+00 0.00000000E+00 0.00000000E+00
31  9-3.79785344E-08 0.00000000E+00 0.00000000E+00 2.33277924E-08-1.65961429E+00
31 10 1.65961390E+00 3.85292164E-07 0.00000000E+00 0.00000000E+00 0.00000000E+00
32  1-0.00000000E+00-0.00000000E+00-0.00000000E+00-0.00000000E+00-0.00000000E+00
32  2-0.00000000E+00-0.00000000E+00-0.00000000E+00-0.00000000E+00-0.00000000E+00
32  3-0.00000000E+00-0.00000000E+00 7.67983284E-03-0.00000000E+00-0.00000000E+00
32  4-0.00000000E+00-0.00000000E+00-0.00000000E+00-0.00000000E+00-0.00000000E+00
32  5-0.00000000E+00-0.00000000E+00 4.78670266E-03-0.00000000E+00-0.00000000E+00
32  6-0.00000000E+00-0.00000000E+00-0.00000000E+00-0.00000000E+00-0.00000000E+00
32  7-0.00000000E+00-0.00000000E+00-0.00000000E+00-0.00000000E+00-0.00000000E+00
32  8-0.00000000E+00-0.00000000E+00 2.40449880E+00-0.00000000E+00-0.00000000E+00
32  9-0.00000000E+00-0.00000000E+00-0.00000000E+00-0.00000000E+00-0.00000000E+00
32 10-0.00000000E+00-0.00000000E+00-1.91635729E+00-0.00000000E+00-0.00000000E+00
33  1 6.37320600E-02-1.68245842E-02-1.27311646E+00 0.00000000E+00 0.00000000E+00
33  2 3.82698827E-02 0.00000000E+00 0.00000000E+00-3.55979004E-01 7.75651793E-04
33  3 7.75653185E-04-1.55130498E-03 0.00000000E+00 0.00000000E+00 0.00000000E+00
33  4 9.46830835E-01 0.00000000E+00 0.00000000E+00 4.14953211E-01 3.38244593E-02
33  5 3.38244747E-02-6.76489339E-02 0.00000000E+00 0.00000000E+00 0.00000000E+00
33  6-6.11502118E-02 2.63850418E-02-3.52221638E-01 0.00000000E+00 0.00000000E+00
33  7-5.60830120E-01 0.00000000E+00 0.00000000E+00 3.72041912E-01-1.28405462E+00
33  8-1.28405527E+00 2.56810989E+00 0.00000000E+00 0.00000000E+00 0.00000000E+00
33  9 9.11369745E-02 0.00000000E+00 0.00000000E+00-1.07634099E-01 8.78964537E-01
33 10 8.78965025E-01-1.75792956E+00 0.00000000E+00 0.00000000E+00 0.00000000E+00
34  1 9.04490412E-04 7.39336626E-03 1.12126008E-01-0.00000000E+00-0.00000000E+00
34  2 3.84005421E-01-0.00000000E+00-0.00000000E+00-1.00942719E+00-7.73619966E-03
34  3-7.73622180E-03 1.54724215E-02-0.00000000E+00-0.00000000E+00-0.00000000E+00
34  4 1.79682206E-01-0.00000000E+00-0.00000000E+00 2.14004169E+00 1.49560575E-01
34  5 1.49560177E-01-2.99120752E-01-0.00000000E+00-0.00000000E+00-0.00000000E+00
34  6-8.12254814E-01-1.77903024E+00 9.80398812E-01-0.00000000E+00-0.00000000E+00
34  7-1.25799836E-01-0.00000000E+00-0.00000000E+00-4.40777150E-01 5.95631117E-01
34  8 5.95631415E-01-1.19126253E+00-0.00000000E+00-0.00000000E+00-0.00000000E+00
34  9-1.24216637E-01-0.00000000E+00-0.00000000E+00 4.22391422E-02-7.65360650E-01
34 10-7.65360787E-01 1.53072144E+00-0.00000000E+00-0.00000000E+00-0.00000000E+00
35  1 0.00000000E+00 0.00000000E+00 0.00000000E+00-4.72910598E-01 0.00000000E+00
35  2 0.00000000E+00 1.38516811E+00 0.00000000E+00 0.00000000E+00 0.00000000E+00
35  3 0.00000000E+00 0.00000000E+00 0.00000000E+00 5.34613252E-03 0.00000000E+00
35  4 0.00000000E+00-1.31453490E+00 0.00000000E+00 0.00000000E+00 0.00000000E+00
35  5 0.00000000E+00 0.00000000E+00 0.00000000E+00 1.98416585E-01 0.00000000E+00
35  6 0.00000000E+00 0.00000000E+00 0.00000000E+00-1.68676417E-01 0.00000000E+00
35  7 0.00000000E+00 5.21383302E-01 0.00000000E+00 0.00000000E+00 0.00000000E+00
35  8 0.00000000E+00 0.00000000E+00 0.00000000E+00 1.82205206E+00 0.00000000E+00
35  9 0.00000000E+00-1.31042381E-01 0.00000000E+00 0.00000000E+00 0.00000000E+00
35 10 0.00000000E+00 0.00000000E+00 0.00000000E+00-1.62706184E+00 0.00000000E+00
36  1 0.00000000E+00 0.00000000E+00 0.00000000E+00 0.00000000E+00-4.72913036E-01
36  2 0.00000000E+00 0.00000000E+00 1.38517153E+00 0.00000000E+00 0.00000000E+00
36  3 0.00000000E+00 0.00000000E+00 0.00000000E+00 0.00000000E+00 5.34477957E-03
36  4 0.00000000E+00 0.00000000E+00-1.31453704E+00 0.00000000E+00 0.00000000E+00
36  5 0.00000000E+00 0.00000000E+00 0.00000000E+00 0.00000000E+00 1.98418922E-01
36  6 0.00000000E+00 0.00000000E+00 0.00000000E+00 0.00000000E+00-1.68672202E-01
36  7 0.00000000E+00 0.00000000E+00 5.21382434E-01 0.00000000E+00 0.00000000E+00
36  8 0.00000000E+00 0.00000000E+00 0.00000000E+00 0.00000000E+00 1.82205112E+00
36  9 0.00000000E+00 0.00000000E+00-1.31048691E-01 0.00000000E+00 0.00000000E+00
36 10 0.00000000E+00 0.00000000E+00 0.00000000E+00 0.00000000E+00-1.62706243E+00
37  1 8.69511754E-07 2.54238009E-06 9.96423359E-09-0.00000000E+00-0.00000000E+00
37  2-4.51782971E-06-0.00000000E+00-0.00000000E+00 1.36187206E-05 2.05857612E-02
37  3-2.05861615E-02 4.00365863E-07-0.00000000E+00-0.00000000E+00-0.00000000E+00