 $CONTRL RUNTYP=NAEWDY2 ISPHER=1 $END
 $BASIS GBASIS=CCD NGAUSS=3 $END
 $GUESS  GUESS=HUCKEL $END
 $DATA
LiF  RHF/aug-cc-pVDZ
C1
H   1.0   0.0   0.0  0.0
H   1.0   0.0   0.0  1.0
 $END
